(set-logic HORN)
(declare-fun state (Int Int Int (Array Int Int) Int (Array Int Int) Int (Array Int Int) Int Int Int Bool Bool Bool Int Int Int Int) Bool)
(assert (forall ((|A_10| Int) (|.y.15| Int) (|.y.16| Int) (|B_9| (Array Int Int)) (|C_9| Int) (|D_9| (Array Int Int)) (|E_9| Int) (|.y.17| (Array Int Int)) (|L_8| Int) (|K_9| Int) (|F_9| Int) (|.loc.18| Bool) (|.loc.19| Bool) (|.loc.20| Bool) (|N_6| Int) (|M_7| Int) (|P_4| Int) (|Q_4| Int) (|.loc.33| Bool) (|.loc.32| Bool) (|.y.31| Int) (|.y.30| Int) (|.y.29| Int) (|.y.27| Int) (|.y.21| Int) (|.y.24| (Array Int Int)) (|.y.25| Int) (|.y.26| (Array Int Int)) (|.loc.34| Bool) (|.y.28| (Array Int Int)) (|.y.22| Int) (|.y.23| Int) (|.xtv.1| Int) (|.xtv.2| Int) (|.xtv.3| Int) (|.xtv.4| Int)) (=> (and (and (not .loc.18) (not .loc.19)) (not .loc.20)) (state |A_10| |.y.15| |.y.16| |B_9| |C_9| |D_9| |E_9| |.y.17| |L_8| |K_9| |F_9| |.loc.18| |.loc.19| |.loc.20| |N_6| |M_7| |P_4| |Q_4|))))
(assert (forall ((|A_10| Int) (|.y.15| Int) (|.y.16| Int) (|B_9| (Array Int Int)) (|C_9| Int) (|D_9| (Array Int Int)) (|E_9| Int) (|.y.17| (Array Int Int)) (|L_8| Int) (|K_9| Int) (|F_9| Int) (|.loc.18| Bool) (|.loc.19| Bool) (|.loc.20| Bool) (|N_6| Int) (|M_7| Int) (|P_4| Int) (|Q_4| Int) (|.loc.33| Bool) (|.loc.32| Bool) (|.y.31| Int) (|.y.30| Int) (|.y.29| Int) (|.y.27| Int) (|.y.21| Int) (|.y.24| (Array Int Int)) (|.y.25| Int) (|.y.26| (Array Int Int)) (|.loc.34| Bool) (|.y.28| (Array Int Int)) (|.y.22| Int) (|.y.23| Int) (|.xtv.1| Int) (|.xtv.2| Int) (|.xtv.3| Int) (|.xtv.4| Int)) (=> (and (state |A_10| |.y.15| |.y.16| |B_9| |C_9| |D_9| |E_9| |.y.17| |L_8| |K_9| |F_9| |.loc.18| |.loc.19| |.loc.20| |N_6| |M_7| |P_4| |Q_4|) (let ((.def_28 (not .loc.18))) (let ((.def_29 (not .loc.19))) (let ((.def_31 (not .loc.20))) (let ((.def_40 (= Q_4 0))) (let ((.def_48 (and (not (<= K_9 L_8)) (not (<= F_9 E_9))))) (let ((.def_65 (not .loc.32))) (let ((.def_74 (not .loc.33))) (let ((.def_79 (= .y.27 0))) (let ((.def_84 (<= C_9 0))) (let ((.def_85 (or (not (<= (+ C_9 E_9) 0)) .def_84))) (let ((.def_89 (= (select D_9 (+ C_9 E_9)) 0))) (let ((.def_91 (not .def_84))) (let ((.def_94 (= A_10 .y.21))) (let ((.def_97 (= B_9 .y.24))) (let ((.def_100 (= C_9 .y.25))) (let ((.def_103 (= D_9 .y.26))) (let ((.def_112 (<= A_10 0))) (let ((.def_127 (* (- 1) N_6))) (let ((.def_134 (= (select D_9 P_4) (select B_9 M_7)))) (let ((.def_153 (not .def_112))) (let ((.def_163 (and .loc.20 .def_29))) (let ((.def_166 (and .loc.18 .loc.19))) (let ((.def_179 (or .def_112 (not (<= (+ A_10 E_9) 0))))) (let ((.def_182 (= (select B_9 (+ A_10 E_9)) 0))) (let ((.def_198 (= (+ E_9 (* (- 1) .y.27)) (- 1)))) (let ((.def_221 (not .loc.34))) (let ((.def_226 (not (<= N_6 0)))) (let ((.def_227 (or .def_84 .def_226))) (let ((.def_230 (<= 5 E_9))) (let ((.def_255 (and .loc.18 .def_29))) (let ((.def_266 (<= .y.15 0))) (let ((.def_267 (not .def_266))) (let ((.def_270 (or .def_226 .def_266))) (let ((.def_272 (<= 5 .y.16))) (let ((.def_275 (= .y.15 .y.22))) (or (or (or (or (or (or (and (or (or (and (or (or (and (and (and .loc.18 (and (or (not (= (ite (not (<= L_8 M_7)) 1 0) 0)) .def_40) (and (= (ite .def_40 1 0) 0) (and (not .def_48) (and (= (+ K_9 (* (- 1) M_7)) 1) (or .def_40 (not (= P_4 0)))))))) .loc.33) .def_65) (and (= L_8 .y.31) (and (= E_9 .y.30) (and (and (and (and (and (and (and (<= L_8 E_9) (and (and (and (= .y.29 0) (and .def_28 (and .loc.32 .def_74))) .def_79) .def_85)) .def_89) .def_91) .def_94) .def_97) .def_100) .def_103)))) (and (= F_9 .y.31) (and (= K_9 .y.30) (and (or (not (<= M_7 0)) .def_112) (and (or .def_84 (not (<= P_4 0))) (and (= (+ A_10 (+ E_9 (* (- 1) M_7))) 0) (and (= (+ C_9 (+ L_8 (* (- 1) P_4))) 0) (and (= (+ L_8 (* (- 1) Q_4)) (- 1)) (and (and (= (+ N_6 (* (- 1) .y.27)) (- 1)) (and (= .y.29 (ite .def_134 Q_4 0)) (and (= (+ E_9 (+ .def_127 (* (- 1) (ite .def_134 0 L_8)))) 0) (and .def_103 (and .def_100 (and .def_97 (and .def_94 (and .def_91 (and .def_74 (and .loc.32 (and .loc.18 .def_48))))))))))) .def_153))))))))) .def_163) (and (= E_9 .y.29) (and (and (and .def_31 (and .def_153 (and .def_103 (and .def_100 (and .def_97 (and .def_94 (and .def_79 (and .def_74 (and .def_65 .def_166))))))))) .def_179) .def_182))) (and (= L_8 .y.29) (and (not .def_89) (and (and .def_103 (and .def_100 (and .def_97 (and .def_94 (and .def_91 (and .def_85 (and .def_28 (and .def_74 (and .def_65 .def_163))))))))) .def_198)))) .loc.34) (and (= .y.17 .y.26) (and (= .y.15 .y.21) (and (and (and (= (+ C_9 .def_127) (- 4)) (and (= (select .y.17 N_6) 0) (and (and .def_31 (and .def_100 (and .def_97 (and .def_91 (and .def_79 (and .def_28 (and .loc.33 (and .loc.19 .loc.32)))))))) .def_221))) .def_227) .def_230)))) (and (not .def_182) (and .def_221 (and .def_198 (and .def_179 (and .def_31 (and .def_153 (and .def_103 (and .def_100 (and .def_97 (and .def_94 (and .loc.33 (and .loc.32 .def_166))))))))))))) (and (and (and (and (= (+ .y.15 .def_127) (- 4)) (and (and (= (select B_9 N_6) 0) (and (= D_9 .y.28) (and .def_221 (and .def_31 (and .def_100 (and .def_97 (and .def_94 (and .def_79 (and .def_65 (and .loc.33 .def_255)))))))))) .def_267)) .def_270) .def_272) .def_275)) (and (not .def_230) (and (= (+ C_9 (+ E_9 .def_127)) 0) (and (= .y.28 (store .y.17 N_6 M_7)) (and .def_275 (and .def_227 (and .def_221 (and .def_198 (and .def_31 (and .def_100 (and .def_97 (and .def_94 (and .def_91 (and .def_28 (and .def_65 (and .loc.19 .loc.33)))))))))))))))) (and (not (<= .y.25 0)) (and (not (<= .y.22 0)) (and (= .y.23 0) (and .def_221 (and .def_31 (and .def_94 (and .def_28 (and .def_74 (and .def_29 .loc.32)))))))))) (and (not .def_272) (and (= (+ .y.15 (+ .y.16 .def_127)) 0) (and (= .y.24 (store B_9 N_6 M_7)) (and (= (+ .y.16 (* (- 1) .y.23)) (- 1)) (and .def_275 (and .def_270 (and .def_267 (and .def_221 (and .def_31 (and .def_103 (and .def_100 (and .def_94 (and .def_74 (and .loc.32 .def_255))))))))))))))))))))))))))))))))))))))))))))))))))) (state |.y.21| |.y.22| |.y.23| |.y.24| |.y.25| |.y.26| |.y.27| |.y.28| |.y.29| |.y.30| |.y.31| |.loc.32| |.loc.33| |.loc.34| |.xtv.1| |.xtv.2| |.xtv.3| |.xtv.4|))))
(assert (forall ((|A_10| Int) (|.y.15| Int) (|.y.16| Int) (|B_9| (Array Int Int)) (|C_9| Int) (|D_9| (Array Int Int)) (|E_9| Int) (|.y.17| (Array Int Int)) (|L_8| Int) (|K_9| Int) (|F_9| Int) (|.loc.18| Bool) (|.loc.19| Bool) (|.loc.20| Bool) (|N_6| Int) (|M_7| Int) (|P_4| Int) (|Q_4| Int) (|.loc.33| Bool) (|.loc.32| Bool) (|.y.31| Int) (|.y.30| Int) (|.y.29| Int) (|.y.27| Int) (|.y.21| Int) (|.y.24| (Array Int Int)) (|.y.25| Int) (|.y.26| (Array Int Int)) (|.loc.34| Bool) (|.y.28| (Array Int Int)) (|.y.22| Int) (|.y.23| Int) (|.xtv.1| Int) (|.xtv.2| Int) (|.xtv.3| Int) (|.xtv.4| Int)) (=> (state |A_10| |.y.15| |.y.16| |B_9| |C_9| |D_9| |E_9| |.y.17| |L_8| |K_9| |F_9| |.loc.18| |.loc.19| |.loc.20| |N_6| |M_7| |P_4| |Q_4|) (not (and .loc.20 (and .loc.19 (not .loc.18)))))))
(check-sat)
